1 1 2 0
1 -1 3 0
1 -4 5 0
1 6 -7 0
1 6 8 0
1 -6 -5 0
1 -6 3 0
1 -9 -7 0
1 -9 8 0
1 -9 10 0
1 9 11 0
1 -9 -5 0
1 -9 -3 0
1 -8 -12 0
1 -8 13 0
1 8 9 0
1 -8 4 0
1 -8 -14 0
1 8 -1 0
1 3 15 0
1 -3 -13 0
1 -3 -4 0
1 3 1 0
1 2 -12 0
1 2 -16 0
1 2 -9 0
1 2 17 0
1 2 -14 0
1 2 18 0
1 2 6 0
1 -2 5 0
1 5 -12 0
1 5 9 0
1 5 2 0
1 -5 14 0
1 -5 18 0
1 5 -19 0
1 20 7 0
1 -20 8 0
1 20 -10 0
1 20 3 0
1 21 -7 0
1 21 -16 0
1 -21 8 0
1 -21 -11 0
1 21 3 0
1 22 -7 0
1 -22 -23 0
1 -22 24 0
1 -22 8 0
1 22 10 0
1 22 -11 0
1 22 -25 0
1 22 26 0
1 -13 27 0
1 -13 23 0
1 -13 -28 0
1 13 -8 0
1 -13 -10 0
1 13 11 0
1 13 26 0
1 -13 -3 0
1 -11 29 0
1 11 -27 0
1 -11 9 0
1 11 -30 0
1 11 20 0
1 11 31 0
1 27 -29 0
1 -27 -32 0
1 -27 -13 0
1 -27 -21 0
1 -27 9 0
1 -27 33 0
1 -27 11 0
1 27 22 0
1 -27 20 0
1 -27 6 0
1 -27 31 0
1 10 7 0
1 10 -34 0
1 -10 -13 0
1 10 9 0
1 10 30 0
1 -10 22 0
1 10 6 0
1 -10 -31 0
1 -7 21 0
1 -7 9 0
1 -7 10 0
1 7 14 0
1 7 -22 0
1 -7 -6 0
1 -7 31 0
1 -33 23 0
1 -33 -24 0
1 -33 -11 0
1 -33 -14 0
1 -33 25 0
1 32 -23 0
1 -32 -33 0
1 32 11 0
1 -32 -25 0
1 -32 -26 0
1 -35 -23 0
1 35 36 0
1 -35 -26 0
1 -29 34 0
1 29 27 0
1 -29 -24 0
1 29 11 0
1 29 -25 0
1 29 26 0
1 -26 29 0
1 -26 13 0
1 -26 -33 0
1 26 22 0
1 -24 29 0
1 24 -33 0
1 24 22 0
1 -25 30 0
1 25 -35 0
1 25 -22 0
1 -25 -37 0
1 25 31 0
1 -23 35 0
1 -23 33 0
1 23 -22 0
1 23 -25 0
1 23 31 0
1 19 -38 0
1 19 16 0
1 19 39 0
1 19 -40 0
1 -19 -5 0
1 -16 21 0
1 16 40 0
1 16 41 0
1 -18 -28 0
1 18 42 0
1 18 2 0
1 -18 -40 0
1 -18 41 0
1 18 43 0
1 -18 -5 0
1 28 39 0
1 28 44 0
1 28 -42 0
1 -28 -2 0
1 28 -40 0
1 28 18 0
1 -28 -45 0
1 28 -43 0
1 -28 -5 0
1 39 -41 0
1 39 28 0
1 -39 36 0
1 39 -14 0
1 -39 -19 0
1 41 34 0
1 41 28 0
1 41 16 0
1 -41 -39 0
1 41 14 0
1 41 -18 0
1 41 19 0
1 -38 -28 0
1 -38 -16 0
1 40 -28 0
1 40 -38 0
1 40 -18 0
1 -40 19 0
1 -14 7 0
1 14 -12 0
1 -14 39 0
1 -14 42 0
1 -14 2 0
1 14 -8 0
1 -14 -10 0
1 -14 41 0
1 -14 -3 0
1 12 14 0
1 -12 -43 0
1 36 7 0
1 -36 34 0
1 -36 39 0
1 36 -42 0
1 36 -17 0
1 36 35 0
1 -36 -41 0
1 -36 -45 0
1 34 7 0
1 -34 -39 0
1 34 -44 0
1 -34 42 0
1 -34 36 0
1 34 45 0
1 -34 -43 0
1 -34 -46 0
1 42 -34 0
1 -42 12 0
1 -42 28 0
1 -42 47 0
1 42 -30 0
1 42 -36 0
1 42 31 0
1 -43 -34 0
1 -43 -12 0
1 43 28 0
1 -43 47 0
1 -43 -30 0
1 43 14 0
1 43 -37 0
1 43 31 0
1 44 -36 0
1 44 -18 0
1 44 -45 0
1 -45 -34 0
1 45 -12 0
1 45 36 0
1 45 -14 0
1 30 7 0
1 -30 -27 0
1 -30 48 0
1 -30 -11 0
1 -30 -25 0
1 -30 43 0
1 -30 -46 0
1 30 -31 0
1 -31 7 0
1 31 15 0
1 31 -27 0
1 -31 -23 0
1 31 -30 0
1 -31 -48 0
1 31 -10 0
1 -31 11 0
1 31 25 0
1 -47 -15 0
1 -47 -42 0
1 47 17 0
1 -47 48 0
1 -47 -37 0
1 47 46 0
1 -37 42 0
1 -37 -47 0
1 -37 -17 0
1 -37 48 0
1 -37 -46 0
1 48 -47 0
1 -48 30 0
1 -48 -8 0
1 -48 -36 0
1 -48 37 0
1 -15 -34 0
1 -15 -30 0
1 -15 48 0
1 15 36 0
1 15 3 0
1 15 -37 0
1 15 31 0
1 17 34 0
1 -17 -30 0
1 17 -36 0
1 17 37 0
1 -17 46 0
1 -46 -47 0
1 46 -30 0
1 -46 36 0
1 46 -5 0
1 46 37 0
